(declare-fun temp2100_1 () (_ BitVec 64))
(declare-fun var66699 () (_ BitVec 64))
(declare-fun temp2100_3 () (_ BitVec 64))
(declare-fun temp2100_2 () (_ BitVec 64))
(declare-fun temp2100_4 () (_ BitVec 64))
(declare-fun var398282 () (_ BitVec 64))
(declare-fun temp2100_6 () (_ BitVec 64))
(declare-fun temp2100_5 () (_ BitVec 64))
(declare-fun temp2100_8 () (_ BitVec 64))
(declare-fun temp2100_7 () (_ BitVec 64))
(declare-fun temp2100_9 () (_ BitVec 64))
(declare-fun var1119178 () (_ BitVec 64))
(declare-fun var74155 () (_ BitVec 64))
(declare-fun var74156 () (_ BitVec 64))
(declare-fun temp2100_11 () (_ BitVec 64))
(declare-fun temp2100_10 () (_ BitVec 64))
(declare-fun temp2100_13 () (_ BitVec 64))
(declare-fun temp2100_12 () (_ BitVec 64))
(declare-fun temp2100_15 () (_ BitVec 64))
(declare-fun temp2100_14 () (_ BitVec 64))
(declare-fun temp2100_16 () (_ BitVec 64))
(declare-fun var1514714 () (_ BitVec 64))
(declare-fun temp2100_17 () (_ BitVec 64))
(declare-fun var74287 () (_ BitVec 64))
(declare-fun var74108 () (_ BitVec 64))
(declare-fun var74107 () (_ BitVec 64))
(declare-fun temp2100_19 () (_ BitVec 64))
(declare-fun temp2100_18 () (_ BitVec 64))
(declare-fun temp2100_20 () (_ BitVec 64))
(declare-fun var74393 () (_ BitVec 64))
(declare-fun var3220345 () (_ BitVec 64))
(declare-fun temp2100_21 () (_ BitVec 64))
(declare-fun var3220349 () (_ BitVec 64))
(declare-fun var74406 () (_ BitVec 64))
(declare-fun temp2100_22 () (_ BitVec 64))
(declare-fun var3810169 () (_ BitVec 64))
(declare-fun temp2100_23 () (_ BitVec 64))
(declare-fun var3810173 () (_ BitVec 64))
(declare-fun temp2100_24 () (_ BitVec 64))
(declare-fun var3810201 () (_ BitVec 64))
(declare-fun temp2100_25 () (_ BitVec 64))
(declare-fun var74420 () (_ BitVec 64))
(declare-fun var74423 () (_ BitVec 64))
(assert (= temp2100_1 #x0000000000000000))
(assert (= var66699 temp2100_1))
(assert (= temp2100_3 #x0000000000000000))
(assert (= temp2100_2 temp2100_3))
(assert (= temp2100_4 #x0000000000000000))
(assert (= var398282 temp2100_4))
(assert (= temp2100_6 #x0000000000000000))
(assert (= temp2100_5 temp2100_6))
(assert (= temp2100_8 #x0000000000000000))
(assert (= temp2100_7 temp2100_8))
(assert (= temp2100_9 #x0000000000000000))
(assert (= var1119178 temp2100_9))
(assert (= var74155 var66699))
(assert (= var74156 var66699))
(assert (= temp2100_11 #x0000000000000001))
(assert (= temp2100_10 temp2100_11))
(assert (= temp2100_13 #x0000000000000001))
(assert (= temp2100_12 temp2100_13))
(assert (= temp2100_15 #x0000000000000002))
(assert (= temp2100_14 temp2100_15))
(assert (= temp2100_16 #x0000000000000000))
(assert (= var1514714 temp2100_16))
(assert (= temp2100_17 #x0000000000000001))
(assert (= var74287 temp2100_17))
(assert (= var74108 (bvadd var74287 var74155)))
(assert (= var74107 var74108))
(assert (= temp2100_19 #x0000000000000002))
(assert (= temp2100_18 temp2100_19))
(assert (= temp2100_20 #x0000000000000000))
(assert (= var66699 temp2100_20))
(assert (= var74393 var66699))
(assert (= var3220345 var66699))
(assert (= temp2100_21 #x0000000000000001))
(assert (= var3220349 temp2100_21))
(assert (= var74406 var66699))
(assert (= temp2100_22 #x0000000000000001))
(assert (= var3810169 temp2100_22))
(assert (= temp2100_23 #x0000000000000001))
(assert (= var3810173 temp2100_23))
(assert (= temp2100_24 #x0000000000000000))
(assert (= var3810201 temp2100_24))
(assert (= temp2100_25 #x0000000000000000))
(assert (= var3810201 temp2100_25))
(assert (= var74420 var66699))
(assert (= var74423 var66699))
(model-add temp2100_1 () (_ BitVec 64) #x0000000000000000)
(model-add var66699 () (_ BitVec 64) #x0000000000000000)
(model-add temp2100_3 () (_ BitVec 64) #x0000000000000000)
(model-add temp2100_2 () (_ BitVec 64) #x0000000000000000)
(model-add temp2100_4 () (_ BitVec 64) #x0000000000000000)
(model-add var398282 () (_ BitVec 64) #x0000000000000000)
(model-add temp2100_6 () (_ BitVec 64) #x0000000000000000)
(model-add temp2100_5 () (_ BitVec 64) #x0000000000000000)
(model-add temp2100_8 () (_ BitVec 64) #x0000000000000000)
(model-add temp2100_7 () (_ BitVec 64) #x0000000000000000)
(model-add temp2100_9 () (_ BitVec 64) #x0000000000000000)
(model-add var1119178 () (_ BitVec 64) #x0000000000000000)
(model-add var74155 () (_ BitVec 64) #x0000000000000000)
(model-add var74156 () (_ BitVec 64) #x0000000000000000)
(model-add temp2100_11 () (_ BitVec 64) #x0000000000000001)
(model-add temp2100_10 () (_ BitVec 64) #x0000000000000001)
(model-add temp2100_13 () (_ BitVec 64) #x0000000000000001)
(model-add temp2100_12 () (_ BitVec 64) #x0000000000000001)
(model-add temp2100_15 () (_ BitVec 64) #x0000000000000002)
(model-add temp2100_14 () (_ BitVec 64) #x0000000000000002)
(model-add temp2100_16 () (_ BitVec 64) #x0000000000000000)
(model-add var1514714 () (_ BitVec 64) #x0000000000000000)
(model-add temp2100_17 () (_ BitVec 64) #x0000000000000001)
(model-add var74287 () (_ BitVec 64) #x0000000000000001)
(model-add var74108 () (_ BitVec 64) #x0000000000000001)
(model-add var74107 () (_ BitVec 64) #x0000000000000001)
(model-add temp2100_19 () (_ BitVec 64) #x0000000000000002)
(model-add temp2100_18 () (_ BitVec 64) #x0000000000000002)
(model-add temp2100_20 () (_ BitVec 64) #x0000000000000000)
(model-add var74393 () (_ BitVec 64) #x0000000000000000)
(model-add var3220345 () (_ BitVec 64) #x0000000000000000)
(model-add temp2100_21 () (_ BitVec 64) #x0000000000000001)
(model-add var3220349 () (_ BitVec 64) #x0000000000000001)
(model-add var74406 () (_ BitVec 64) #x0000000000000000)
(model-add temp2100_22 () (_ BitVec 64) #x0000000000000001)
(model-add var3810169 () (_ BitVec 64) #x0000000000000001)
(model-add temp2100_23 () (_ BitVec 64) #x0000000000000001)
(model-add var3810173 () (_ BitVec 64) #x0000000000000001)
(model-add temp2100_24 () (_ BitVec 64) #x0000000000000000)
(model-add var3810201 () (_ BitVec 64) #x0000000000000000)
(model-add temp2100_25 () (_ BitVec 64) #x0000000000000000)






